#------------------------------------------------------------------------------
#$Date: 2013-11-18 12:57:43 +0200 (Mon, 18 Nov 2013) $
#$Revision: 90788 $
#$URL: svn://cod.ibt.lt/cod/cif/1/51/27/1512721.cif $
#------------------------------------------------------------------------------
#
# This file is available in the Crystallography Open Database (COD),
# http://www.crystallography.net/
#
# All data on this site have been placed in the public domain by the
# contributors.
#
data_1512721
loop_
_publ_author_name
'Julia Torres'
'Javier Gonzalez-Platas'
'Joaquin Sanchiz'
'Jorge Castiglioni'
'Sixto Dominguez'
'Carlos Kremer'
_publ_section_title
;
 Cation effect on the crystal structure of polynuclear complexes with
 2,2'-oxydiacetate as bridging ligand
;
_journal_name_full
;
Inorganica Chimica Acta
;
_journal_page_first              196
_journal_page_last               202
_journal_volume                  393
_journal_year                    2012
_chemical_formula_moiety         '2(C12 H12 Ca Lu O15), Ca H12 O6, 3(H2 O)'
_chemical_formula_sum            'C24 H42 Ca3 Lu2 O39'
_chemical_formula_weight         1424.76
_chemical_name_systematic
;
Hexaaquacalcium bis(\m~3~-oxydiacetato)calciumlutetiumate trihydrate
;
_space_group_crystal_system      cubic
_space_group_IT_number           228
_space_group_name_H-M_alt        'F d -3 c'
_symmetry_space_group_name_Hall  '-F 4ud 2vw 3'
_symmetry_space_group_name_H-M   'F d -3 c :2'
_atom_sites_solution_hydrogens   geom
_atom_sites_solution_primary     direct
_atom_sites_solution_secondary   difmap
_cell_angle_alpha                90.00
_cell_angle_beta                 90.00
_cell_angle_gamma                90.00
_cell_formula_units_Z            16
_cell_length_a                   26.3397(4)
_cell_length_b                   26.3397(4)
_cell_length_c                   26.3397(4)
_cell_measurement_reflns_used    3112
_cell_measurement_temperature    293(2)
_cell_measurement_theta_max      70.8926
_cell_measurement_theta_min      3.3530
_cell_volume                     18274.0(5)
_computing_cell_refinement
;
CrysAlisPro, Agilent Technologies,
Version 1.171.35.19 (release 27-10-2011 CrysAlis171 .NET)
(compiled Oct 27 2011,15:02:11)
;
_computing_data_collection
;
CrysAlisPro, Agilent Technologies,
Version 1.171.35.19 (release 27-10-2011 CrysAlis171 .NET)
(compiled Oct 27 2011,15:02:11)
;
_computing_data_reduction
;
CrysAlisPro, Agilent Technologies,
Version 1.171.35.19 (release 27-10-2011 CrysAlis171 .NET)
(compiled Oct 27 2011,15:02:11)
;
_computing_molecular_graphics
;
O. V. Dolomanov, L. J. Bourhis, R. J. Gildea, J. A. K. Howard and H. Puschmann,
OLEX2: a complete structure solution, refinement and analysis program.
J. Appl. Cryst. (2009). 42, 339-341.
;
_computing_publication_material
;
O. V. Dolomanov, L. J. Bourhis, R. J. Gildea, J. A. K. Howard and H. Puschmann,
OLEX2: a complete structure solution, refinement and analysis program.
J. Appl. Cryst. (2009). 42, 339-341.
;
_computing_structure_refinement
;
SHELXL, G.M. Sheldrick, Acta Cryst.
2008). A64, 112-122
;
_computing_structure_solution
'Sir2011 (Burla et al., J. Appl. Cryst. 45, 2012)'
_diffrn_ambient_temperature      566(2)
_diffrn_detector_area_resol_mean 10.5953
_diffrn_measured_fraction_theta_full 1.000
_diffrn_measured_fraction_theta_max 0.995
_diffrn_measurement_details
;
  1 omega   10.00   86.00   1.0000    1.5000
omega____ theta____ kappa____ phi______ frames
    -        0.0000   57.0000 -180.0000 76

  2 omega  -38.00  -10.00   1.0000    1.5000
omega____ theta____ kappa____ phi______ frames
    -        0.0000   57.0000 -180.0000 28

  3 omega    9.00   38.00   1.0000    1.5000
omega____ theta____ kappa____ phi______ frames
    -        0.0000  -57.0000 -120.0000 29

  4 omega   69.00  138.00   1.0000    6.0000
omega____ theta____ kappa____ phi______ frames
    -       54.9715  165.0000  -89.0000 69

  5 omega  100.00  125.00   1.0000    6.0000
omega____ theta____ kappa____ phi______ frames
    -       54.9715  143.0000 -162.0000 25

  6 omega   66.00  143.00   1.0000    6.0000
omega____ theta____ kappa____ phi______ frames
    -       54.9715   38.0000  -30.0000 77

  7 omega   17.00   57.00   1.0000    6.0000
omega____ theta____ kappa____ phi______ frames
    -       54.9715   38.0000  -30.0000 40

  8 omega   71.00  150.00   1.0000   20.0000
omega____ theta____ kappa____ phi______ frames
    -      109.9429  178.0000 -180.0000 79

  9 omega   25.00   92.00   1.0000   20.0000
omega____ theta____ kappa____ phi______ frames
    -      109.9429  -25.0000 -180.0000 67

 10 omega  119.00  160.00   1.0000   20.0000
omega____ theta____ kappa____ phi______ frames
    -      109.9429  111.0000 -180.0000 41

 11 omega  138.00  176.00   1.0000   20.0000
omega____ theta____ kappa____ phi______ frames
    -      109.9429  111.0000  -60.0000 38

 12 omega   34.00   87.00   1.0000   20.0000
omega____ theta____ kappa____ phi______ frames
    -      109.9429  -25.0000  120.0000 53
;
_diffrn_measurement_device_type  'SuperNova, Dual, Cu at zero, Atlas'
_diffrn_measurement_method       '\w scans'
_diffrn_orient_matrix_UB_11      0.0081284000
_diffrn_orient_matrix_UB_12      -0.0567100000
_diffrn_orient_matrix_UB_13      -0.0111719000
_diffrn_orient_matrix_UB_21      -0.0465367000
_diffrn_orient_matrix_UB_22      -0.0131466000
_diffrn_orient_matrix_UB_23      0.0330485000
_diffrn_orient_matrix_UB_31      -0.0345871000
_diffrn_orient_matrix_UB_32      0.0043493000
_diffrn_orient_matrix_UB_33      -0.0470094000
_diffrn_radiation_monochromator  mirror
_diffrn_radiation_type           'Cu K\a'
_diffrn_radiation_wavelength     1.5418
_diffrn_reflns_av_R_equivalents  0.0190
_diffrn_reflns_av_unetI/netI     0.0067
_diffrn_reflns_limit_h_max       23
_diffrn_reflns_limit_h_min       -31
_diffrn_reflns_limit_k_max       31
_diffrn_reflns_limit_k_min       -29
_diffrn_reflns_limit_l_max       23
_diffrn_reflns_limit_l_min       -28
_diffrn_reflns_number            9369
_diffrn_reflns_theta_full        66.97
_diffrn_reflns_theta_max         71.03
_diffrn_reflns_theta_min         4.75
_diffrn_source                   'SuperNova (Cu) X-ray Source'
_exptl_absorpt_coefficient_mu    12.078
_exptl_absorpt_correction_T_max  0.479
_exptl_absorpt_correction_T_min  0.270
_exptl_absorpt_correction_type   analytical
_exptl_absorpt_process_details
;
CrysAlisPro, Agilent Technologies,
Version 1.171.35.19 (release 27-10-2011 CrysAlis171 .NET)
(compiled Oct 27 2011,15:02:11)
Analytical numeric absorption correction using a multifaceted crystal
            model based on expressions derived by R.C. Clark & J.S. Reid.
(Clark, R. C. & Reid, J. S. (1995). Acta Cryst. A51, 887-897)
;
_exptl_crystal_colour            colourless
_exptl_crystal_density_diffrn    2.071
_exptl_crystal_density_method    'not measured'
_exptl_crystal_description       prism
_exptl_crystal_F_000             11200
_exptl_crystal_size_max          0.1186
_exptl_crystal_size_mid          0.1082
_exptl_crystal_size_min          0.0768
_refine_diff_density_max         0.832
_refine_diff_density_min         -0.907
_refine_diff_density_rms         0.088
_refine_ls_extinction_method     none
_refine_ls_goodness_of_fit_ref   1.233
_refine_ls_hydrogen_treatment    constr
_refine_ls_matrix_type           full
_refine_ls_number_parameters     57
_refine_ls_number_reflns         749
_refine_ls_number_restraints     0
_refine_ls_restrained_S_all      1.233
_refine_ls_R_factor_all          0.0383
_refine_ls_R_factor_gt           0.0322
_refine_ls_shift/su_max          0.000
_refine_ls_shift/su_mean         0.000
_refine_ls_structure_factor_coef Fsqd
_refine_ls_weighting_details
'calc w=1/[\s^2^(Fo^2^)+(0.0431P)^2^+190.0887P] where P=(Fo^2^+2Fc^2^)/3'
_refine_ls_weighting_scheme      calc
_refine_ls_wR_factor_gt          0.0997
_refine_ls_wR_factor_ref         0.1102
_reflns_number_gt                628
_reflns_number_total             749
_reflns_threshold_expression     >2sigma(I)
_[local]_cod_data_source_file    ICA-2013-394-196-202-5.cif
_[local]_cod_data_source_block   LuCaODA
_cod_original_cell_volume        18273.9(5)
_cod_database_code               1512721
loop_
_space_group_symop_id
_space_group_symop_operation_xyz
1 'x, y, z'
2 '-x+1/4, -y+3/4, z+1/2'
3 '-x+3/4, y+1/2, -z+1/4'
4 'x+1/2, -y+1/4, -z+3/4'
5 'z, x, y'
6 'z+1/2, -x+1/4, -y+3/4'
7 '-z+1/4, -x+3/4, y+1/2'
8 '-z+3/4, x+1/2, -y+1/4'
9 'y, z, x'
10 '-y+3/4, z+1/2, -x+1/4'
11 'y+1/2, -z+1/4, -x+3/4'
12 '-y+1/4, -z+3/4, x+1/2'
13 'y+3/4, x+1/4, -z'
14 '-y+1/2, -x+1/2, -z+1/2'
15 'y+1/4, -x, z+3/4'
16 '-y, x+3/4, z+1/4'
17 'x+3/4, z+1/4, -y'
18 '-x, z+3/4, y+1/4'
19 '-x+1/2, -z+1/2, -y+1/2'
20 'x+1/4, -z, y+3/4'
21 'z+3/4, y+1/4, -x'
22 'z+1/4, -y, x+3/4'
23 '-z, y+3/4, x+1/4'
24 '-z+1/2, -y+1/2, -x+1/2'
25 'x, y+1/2, z+1/2'
26 '-x+1/4, -y+5/4, z+1'
27 '-x+3/4, y+1, -z+3/4'
28 'x+1/2, -y+3/4, -z+5/4'
29 'z, x+1/2, y+1/2'
30 'z+1/2, -x+3/4, -y+5/4'
31 '-z+1/4, -x+5/4, y+1'
32 '-z+3/4, x+1, -y+3/4'
33 'y, z+1/2, x+1/2'
34 '-y+3/4, z+1, -x+3/4'
35 'y+1/2, -z+3/4, -x+5/4'
36 '-y+1/4, -z+5/4, x+1'
37 'y+3/4, x+3/4, -z+1/2'
38 '-y+1/2, -x+1, -z+1'
39 'y+1/4, -x+1/2, z+5/4'
40 '-y, x+5/4, z+3/4'
41 'x+3/4, z+3/4, -y+1/2'
42 '-x, z+5/4, y+3/4'
43 '-x+1/2, -z+1, -y+1'
44 'x+1/4, -z+1/2, y+5/4'
45 'z+3/4, y+3/4, -x+1/2'
46 'z+1/4, -y+1/2, x+5/4'
47 '-z, y+5/4, x+3/4'
48 '-z+1/2, -y+1, -x+1'
49 'x+1/2, y, z+1/2'
50 '-x+3/4, -y+3/4, z+1'
51 '-x+5/4, y+1/2, -z+3/4'
52 'x+1, -y+1/4, -z+5/4'
53 'z+1/2, x, y+1/2'
54 'z+1, -x+1/4, -y+5/4'
55 '-z+3/4, -x+3/4, y+1'
56 '-z+5/4, x+1/2, -y+3/4'
57 'y+1/2, z, x+1/2'
58 '-y+5/4, z+1/2, -x+3/4'
59 'y+1, -z+1/4, -x+5/4'
60 '-y+3/4, -z+3/4, x+1'
61 'y+5/4, x+1/4, -z+1/2'
62 '-y+1, -x+1/2, -z+1'
63 'y+3/4, -x, z+5/4'
64 '-y+1/2, x+3/4, z+3/4'
65 'x+5/4, z+1/4, -y+1/2'
66 '-x+1/2, z+3/4, y+3/4'
67 '-x+1, -z+1/2, -y+1'
68 'x+3/4, -z, y+5/4'
69 'z+5/4, y+1/4, -x+1/2'
70 'z+3/4, -y, x+5/4'
71 '-z+1/2, y+3/4, x+3/4'
72 '-z+1, -y+1/2, -x+1'
73 'x+1/2, y+1/2, z'
74 '-x+3/4, -y+5/4, z+1/2'
75 '-x+5/4, y+1, -z+1/4'
76 'x+1, -y+3/4, -z+3/4'
77 'z+1/2, x+1/2, y'
78 'z+1, -x+3/4, -y+3/4'
79 '-z+3/4, -x+5/4, y+1/2'
80 '-z+5/4, x+1, -y+1/4'
81 'y+1/2, z+1/2, x'
82 '-y+5/4, z+1, -x+1/4'
83 'y+1, -z+3/4, -x+3/4'
84 '-y+3/4, -z+5/4, x+1/2'
85 'y+5/4, x+3/4, -z'
86 '-y+1, -x+1, -z+1/2'
87 'y+3/4, -x+1/2, z+3/4'
88 '-y+1/2, x+5/4, z+1/4'
89 'x+5/4, z+3/4, -y'
90 '-x+1/2, z+5/4, y+1/4'
91 '-x+1, -z+1, -y+1/2'
92 'x+3/4, -z+1/2, y+3/4'
93 'z+5/4, y+3/4, -x'
94 'z+3/4, -y+1/2, x+3/4'
95 '-z+1/2, y+5/4, x+1/4'
96 '-z+1, -y+1, -x+1/2'
97 '-x, -y, -z'
98 'x-1/4, y-3/4, -z-1/2'
99 'x-3/4, -y-1/2, z-1/4'
100 '-x-1/2, y-1/4, z-3/4'
101 '-z, -x, -y'
102 '-z-1/2, x-1/4, y-3/4'
103 'z-1/4, x-3/4, -y-1/2'
104 'z-3/4, -x-1/2, y-1/4'
105 '-y, -z, -x'
106 'y-3/4, -z-1/2, x-1/4'
107 '-y-1/2, z-1/4, x-3/4'
108 'y-1/4, z-3/4, -x-1/2'
109 '-y-3/4, -x-1/4, z'
110 'y-1/2, x-1/2, z-1/2'
111 '-y-1/4, x, -z-3/4'
112 'y, -x-3/4, -z-1/4'
113 '-x-3/4, -z-1/4, y'
114 'x, -z-3/4, -y-1/4'
115 'x-1/2, z-1/2, y-1/2'
116 '-x-1/4, z, -y-3/4'
117 '-z-3/4, -y-1/4, x'
118 '-z-1/4, y, -x-3/4'
119 'z, -y-3/4, -x-1/4'
120 'z-1/2, y-1/2, x-1/2'
121 '-x, -y+1/2, -z+1/2'
122 'x-1/4, y-1/4, -z'
123 'x-3/4, -y, z+1/4'
124 '-x-1/2, y+1/4, z-1/4'
125 '-z, -x+1/2, -y+1/2'
126 '-z-1/2, x+1/4, y-1/4'
127 'z-1/4, x-1/4, -y'
128 'z-3/4, -x, y+1/4'
129 '-y, -z+1/2, -x+1/2'
130 'y-3/4, -z, x+1/4'
131 '-y-1/2, z+1/4, x-1/4'
132 'y-1/4, z-1/4, -x'
133 '-y-3/4, -x+1/4, z+1/2'
134 'y-1/2, x, z'
135 '-y-1/4, x+1/2, -z-1/4'
136 'y, -x-1/4, -z+1/4'
137 '-x-3/4, -z+1/4, y+1/2'
138 'x, -z-1/4, -y+1/4'
139 'x-1/2, z, y'
140 '-x-1/4, z+1/2, -y-1/4'
141 '-z-3/4, -y+1/4, x+1/2'
142 '-z-1/4, y+1/2, -x-1/4'
143 'z, -y-1/4, -x+1/4'
144 'z-1/2, y, x'
145 '-x+1/2, -y, -z+1/2'
146 'x+1/4, y-3/4, -z'
147 'x-1/4, -y-1/2, z+1/4'
148 '-x, y-1/4, z-1/4'
149 '-z+1/2, -x, -y+1/2'
150 '-z, x-1/4, y-1/4'
151 'z+1/4, x-3/4, -y'
152 'z-1/4, -x-1/2, y+1/4'
153 '-y+1/2, -z, -x+1/2'
154 'y-1/4, -z-1/2, x+1/4'
155 '-y, z-1/4, x-1/4'
156 'y+1/4, z-3/4, -x'
157 '-y-1/4, -x-1/4, z+1/2'
158 'y, x-1/2, z'
159 '-y+1/4, x, -z-1/4'
160 'y+1/2, -x-3/4, -z+1/4'
161 '-x-1/4, -z-1/4, y+1/2'
162 'x+1/2, -z-3/4, -y+1/4'
163 'x, z-1/2, y'
164 '-x+1/4, z, -y-1/4'
165 '-z-1/4, -y-1/4, x+1/2'
166 '-z+1/4, y, -x-1/4'
167 'z+1/2, -y-3/4, -x+1/4'
168 'z, y-1/2, x'
169 '-x+1/2, -y+1/2, -z'
170 'x+1/4, y-1/4, -z-1/2'
171 'x-1/4, -y, z-1/4'
172 '-x, y+1/4, z-3/4'
173 '-z+1/2, -x+1/2, -y'
174 '-z, x+1/4, y-3/4'
175 'z+1/4, x-1/4, -y-1/2'
176 'z-1/4, -x, y-1/4'
177 '-y+1/2, -z+1/2, -x'
178 'y-1/4, -z, x-1/4'
179 '-y, z+1/4, x-3/4'
180 'y+1/4, z-1/4, -x-1/2'
181 '-y-1/4, -x+1/4, z'
182 'y, x, z-1/2'
183 '-y+1/4, x+1/2, -z-3/4'
184 'y+1/2, -x-1/4, -z-1/4'
185 '-x-1/4, -z+1/4, y'
186 'x+1/2, -z-1/4, -y-1/4'
187 'x, z, y-1/2'
188 '-x+1/4, z+1/2, -y-3/4'
189 '-z-1/4, -y+1/4, x'
190 '-z+1/4, y+1/2, -x-3/4'
191 'z+1/2, -y-1/4, -x-1/4'
192 'z, y, x-1/2'
loop_
_atom_site_label
_atom_site_type_symbol
_atom_site_fract_x
_atom_site_fract_y
_atom_site_fract_z
_atom_site_U_iso_or_equiv
_atom_site_adp_type
_atom_site_occupancy
_atom_site_symmetry_multiplicity
_atom_site_calc_flag
_atom_site_refinement_flags
Lu1 Lu 0.2500 0.0000 0.0000 0.0260(3) Uani 1 6 d S
Ca1 Ca 0.5000 0.0000 0.0000 0.0264(6) Uani 1 6 d S
O1 O 0.31463(11) 0.06463(11) 0.0000 0.0399(10) Uani 1 2 d S
O2 O 0.33238(11) -0.02993(11) 0.00883(11) 0.0403(7) Uani 1 1 d .
O3 O 0.41547(12) -0.02129(12) 0.01495(12) 0.0465(8) Uani 1 1 d .
C1 C 0.36604(19) 0.05252(19) 0.0044(2) 0.0663(17) Uani 1 1 d .
H1A H 0.3804 0.0695 0.0338 0.080 Uiso 1 1 calc R
H1B H 0.3841 0.0640 -0.0255 0.080 Uiso 1 1 calc R
C2 C 0.3719(2) -0.00372(16) 0.0099(2) 0.0378(12) Uani 1 1 d .
Ca2 Ca 0.1250 0.1250 0.1250 0.0564(9) Uani 1 12 d S
O1W O 0.0374(2) 0.1250 0.1250 0.102(3) Uani 1 2 d S
H1W H 0.0188 0.0991 0.1296 0.153 Uiso 1 1 d R
O2W O 0.1250 0.3275(7) 0.1250 0.178(10) Uani 0.50 2 d SP
H2W H 0.0960 0.3164 0.1269 0.268 Uiso 0.50 1 d PR
loop_
_atom_site_aniso_label
_atom_site_aniso_U_11
_atom_site_aniso_U_22
_atom_site_aniso_U_33
_atom_site_aniso_U_23
_atom_site_aniso_U_13
_atom_site_aniso_U_12
Lu1 0.0260(3) 0.0260(3) 0.0260(3) 0.00406(9) -0.00406(9) -0.00406(9)
Ca1 0.0264(6) 0.0264(6) 0.0264(6) -0.0038(3) -0.0038(3) -0.0038(3)
O1 0.0327(13) 0.0327(13) 0.054(3) 0.0080(12) -0.0080(12) -0.0016(16)
O2 0.0304(15) 0.0373(16) 0.0532(18) 0.0042(12) -0.0048(12) -0.0031(12)
O3 0.0328(17) 0.0488(18) 0.0579(19) 0.0064(16) -0.0025(14) 0.0001(13)
C1 0.034(3) 0.043(3) 0.122(5) 0.013(3) -0.014(3) -0.006(2)
C2 0.036(3) 0.043(3) 0.035(2) -0.0003(17) -0.0029(18) -0.0036(17)
Ca2 0.0564(9) 0.0564(9) 0.0564(9) 0.000 0.000 0.000
O1W 0.054(4) 0.048(3) 0.203(8) 0.000(4) 0.000 0.000
O2W 0.34(4) 0.090(13) 0.102(13) 0.000 0.021(17) 0.000
loop_
_atom_type_symbol
_atom_type_description
_atom_type_scat_dispersion_real
_atom_type_scat_dispersion_imag
_atom_type_scat_source
C C 0.0181 0.0091 'International Tables Vol C Tables 4.2.6.8 and 6.1.1.4'
H H 0.0000 0.0000 'International Tables Vol C Tables 4.2.6.8 and 6.1.1.4'
Ca Ca 0.3641 1.2855 'International Tables Vol C Tables 4.2.6.8 and 6.1.1.4'
Lu Lu -6.6179 4.6937 'International Tables Vol C Tables 4.2.6.8 and 6.1.1.4'
O O 0.0492 0.0322 'International Tables Vol C Tables 4.2.6.8 and 6.1.1.4'
loop_
_geom_angle_atom_site_label_1
_geom_angle_atom_site_label_2
_geom_angle_atom_site_label_3
_geom_angle
_geom_angle_site_symmetry_1
_geom_angle_site_symmetry_3
O2 Lu1 O2 79.05(11) 82_445 .
O2 Lu1 O2 143.75(14) 82_445 22_554
O2 Lu1 O2 85.87(15) . 22_554
O2 Lu1 O2 79.05(11) 82_445 31_544
O2 Lu1 O2 79.05(11) . 31_544
O2 Lu1 O2 130.20(14) 22_554 31_544
O2 Lu1 O2 85.87(15) 82_445 85_445
O2 Lu1 O2 130.21(14) . 85_445
O2 Lu1 O2 79.05(11) 22_554 85_445
O2 Lu1 O2 143.75(14) 31_544 85_445
O2 Lu1 O2 130.20(14) 82_445 43_544
O2 Lu1 O2 143.75(14) . 43_544
O2 Lu1 O2 79.05(11) 22_554 43_544
O2 Lu1 O2 85.87(15) 31_544 43_544
O2 Lu1 O2 79.05(11) 85_445 43_544
O2 Lu1 O1 137.06(7) 82_445 31_544
O2 Lu1 O1 71.87(7) . 31_544
O2 Lu1 O1 65.10(7) 22_554 31_544
O2 Lu1 O1 65.10(7) 31_544 31_544
O2 Lu1 O1 137.06(7) 85_445 31_544
O2 Lu1 O1 71.88(7) 43_544 31_544
O2 Lu1 O1 71.88(7) 82_445 .
O2 Lu1 O1 65.10(7) . .
O2 Lu1 O1 71.87(7) 22_554 .
O2 Lu1 O1 137.07(7) 31_544 .
O2 Lu1 O1 65.10(7) 85_445 .
O2 Lu1 O1 137.06(7) 43_544 .
O1 Lu1 O1 120.0 31_544 .
O2 Lu1 O1 65.10(7) 82_445 82_445
O2 Lu1 O1 137.07(7) . 82_445
O2 Lu1 O1 137.06(7) 22_554 82_445
O2 Lu1 O1 71.87(7) 31_544 82_445
O2 Lu1 O1 71.87(7) 85_445 82_445
O2 Lu1 O1 65.10(7) 43_544 82_445
O1 Lu1 O1 120.0 31_544 82_445
O1 Lu1 O1 120.0 . 82_445
O3 Ca1 O3 180.0 97_655 .
O3 Ca1 O3 88.41(11) 97_655 153
O3 Ca1 O3 91.59(11) . 153
O3 Ca1 O3 91.59(11) 97_655 57_554
O3 Ca1 O3 88.41(11) . 57_554
O3 Ca1 O3 180.0(2) 153 57_554
O3 Ca1 O3 91.59(11) 97_655 77_545
O3 Ca1 O3 88.41(11) . 77_545
O3 Ca1 O3 91.59(11) 153 77_545
O3 Ca1 O3 88.41(11) 57_554 77_545
O3 Ca1 O3 88.41(11) 97_655 173
O3 Ca1 O3 91.59(11) . 173
O3 Ca1 O3 88.41(11) 153 173
O3 Ca1 O3 91.59(11) 57_554 173
O3 Ca1 O3 180.0(2) 77_545 173
C1 O1 C1 116.7(5) . 85_445
C1 O1 Lu1 121.6(3) . .
C1 O1 Lu1 121.6(3) 85_445 .
C2 O2 Lu1 126.4(3) . .
C2 O3 Ca1 140.7(3) . .
O1 C1 C2 109.5(4) . .
O3 C2 O2 124.4(4) . .
O3 C2 C1 118.2(4) . .
O2 C2 C1 117.3(4) . .
O1W Ca2 O1W 180.0 54_454 5
O1W Ca2 O1W 90.0 54_454 .
O1W Ca2 O1W 90.0 5 .
O1W Ca2 O1W 90.0 54_454 26_544
O1W Ca2 O1W 90.0 5 26_544
O1W Ca2 O1W 180.0 . 26_544
O1W Ca2 O1W 90.0 54_454 82_445
O1W Ca2 O1W 90.0 5 82_445
O1W Ca2 O1W 90.0 . 82_445
O1W Ca2 O1W 90.0 26_544 82_445
O1W Ca2 O1W 90.0 54_454 9
O1W Ca2 O1W 90.0 5 9
O1W Ca2 O1W 90.0 . 9
O1W Ca2 O1W 90.0 26_544 9
O1W Ca2 O1W 180.0 82_445 9
loop_
_geom_bond_atom_site_label_1
_geom_bond_atom_site_label_2
_geom_bond_distance
_geom_bond_site_symmetry_2
Lu1 O2 2.320(3) 82_445
Lu1 O2 2.320(3) .
Lu1 O2 2.320(3) 22_554
Lu1 O2 2.320(3) 31_544
Lu1 O2 2.320(3) 85_445
Lu1 O2 2.320(3) 43_544
Lu1 O1 2.407(4) 31_544
Lu1 O1 2.407(4) .
Lu1 O1 2.407(4) 82_445
Ca1 O3 2.330(3) 97_655
Ca1 O3 2.330(3) .
Ca1 O3 2.330(3) 153
Ca1 O3 2.330(3) 57_554
Ca1 O3 2.330(3) 77_545
Ca1 O3 2.330(3) 173
O1 C1 1.396(5) .
O1 C1 1.396(5) 85_445
O2 C2 1.249(6) .
O3 C2 1.245(6) .
C1 C2 1.497(6) .
Ca2 O1W 2.308(6) 54_454
Ca2 O1W 2.308(6) 5
Ca2 O1W 2.309(6) .
Ca2 O1W 2.309(6) 26_544
Ca2 O1W 2.309(6) 82_445
Ca2 O1W 2.309(6) 9
