##TITLE=Methyl 1-methylcyclopropyl ketone
##JCAMP-DX=4.24
##DATA TYPE=MASS SPECTRUM
##ORIGIN=Chuck Anderson, Aldrich Chemical Co.
##OWNER=NIST Mass Spectrometry Data Center
Collection (C) 2002 copyright by the U.S. Secretary of Commerce
on behalf of the United States of America. All rights reserved.
##CAS REGISTRY NO=1567-75-5
##$EPA MASS SPEC NO=108125
##MOLFORM=C6H10O
##MW=98
##$NIST SOURCE=MSDC
##.IONIZATION ENERGY=70
##XUNITS=M/Z
##YUNITS=RELATIVE ABUNDANCE
##XFACTOR=1
##YFACTOR=1
##FIRSTX=14
##LASTX=100
##FIRSTY=4
##MAXX=100
##MINX=14
##MAXY=999
##MINY=1
##NPOINTS=54
##PEAK TABLE=(XY..XY)
14,4 15,31 16,1 25,1 26,17
27,93 28,22 29,121 30,3 31,1
36,1 37,7 38,17 39,135 40,17
41,64 42,41 43,999 44,23 45,5
49,4 50,23 51,27 52,10 53,64
54,21 55,345 56,24 57,1 58,2
61,1 62,1 63,1 65,2 66,1
67,7 68,1 69,8 70,5 71,1
74,1 77,2 78,1 79,5 80,1
81,1 82,2 83,98 84,5 96,2
97,92 98,115 99,9 100,1
##END=
