##TITLE= CPD05 entry 1
##MOLFORM= 
##CAS NAME= 
##CAS REGISTRY NO= 0000
##RTI= 0.0000        
##MW= 0
##DATA TYPE= MASS SPECTRUM
##NPOINTS= 26
##XYDATA= (XY..XY)
 24, 39 25, 39 26, 78 27, 78 28, 195 29, 1053 30, 117 31, 351
 32, 39 33, 39 40, 39 41, 117 42, 1014 43, 9945 44, 273 45, 117
 46, 39 56, 39 57, 39 58, 39 59, 546 60, 39 61, 39 73, 39 74, 1482
 75, 39
##END= 
