##TITLE= CPD02 entry 1
##MOLFORM= 
##CAS NAME= 
##CAS REGISTRY NO= 0000
##RTI= 0.0000        
##MW= 0
##DATA TYPE= MASS SPECTRUM
##NPOINTS= 35
##XYDATA= (XY..XY)
 26, 1716 27, 5070 28, 7254 29, 3822 30, 390 31, 9945 33, 39 37, 39
 38, 39 39, 39 40, 156 41, 39 42, 234 43, 936 44, 195 45, 3354
 46, 234 47, 819 48, 39 50, 39 51, 39 53, 39 54, 39 55, 39 56, 390
 57, 156 58, 39 59, 117 60, 39 67, 39 70, 39 72, 39 73, 195 74, 1131
 75, 78
##END= 
