##TITLE= CPD01 entry 1
##MOLFORM= 
##CAS NAME= 
##CAS REGISTRY NO= 0000
##RTI= 0.0000        
##MW= 0
##DATA TYPE= MASS SPECTRUM
##NPOINTS= 25
##XYDATA= (XY..XY)
 27, 1248 28, 2067 29, 5538 30, 351 31, 702 32, 39 36, 78 38, 39
 39, 39 40, 39 41, 78 42, 351 43, 2028 44, 5343 45, 2730 46, 78
 47, 39 49, 39 51, 39 56, 39 71, 39 72, 39 73, 9945 74, 546 75, 39
##END= 
