##TITLE= CPD03 entry 1
##MOLFORM= 
##CAS NAME= 
##CAS REGISTRY NO= 0000
##RTI= 0.0000        
##MW= 0
##DATA TYPE= MASS SPECTRUM
##NPOINTS= 27
##XYDATA= (XY..XY)
 15, 858 25, 39 26, 117 27, 234 28, 195 29, 546 30, 78 31, 1677
 32, 39 36, 39 37, 39 38, 39 39, 39 40, 39 41, 78 42, 429 43, 9945
 44, 273 45, 351 53, 39 55, 39 56, 39 57, 39 58, 78 73, 39 74, 975
 75, 78
##END= 
