##TITLE= CPD04 entry 1
##MOLFORM= 
##CAS NAME= 
##CAS REGISTRY NO= 0000
##RTI= 0.0000        
##MW= 0
##DATA TYPE= MASS SPECTRUM
##NPOINTS= 50
##XYDATA= (XY..XY)
 12, 78 13, 195 14, 780 15, 2808 16, 234 17, 1053 18, 4368 19, 429
 25, 156 26, 741 27, 2145 28, 1677 29, 4212 30, 429 31, 5850 32, 117
 33, 39 36, 39 37, 78 38, 117 39, 195 40, 78 41, 234 42, 975 43, 8853
 44, 9945 45, 936 46, 39 47, 39 49, 39 53, 39 55, 312 56, 273
 57, 156 58, 78 59, 117 61, 39 62, 39 63, 39 64, 39 65, 39 66, 39
 67, 39 68, 39 69, 39 70, 39 71, 39 72, 39 73, 117 74, 39
##END= 
