# CIF Copied by cif2cif, version 0.0.8 - beta ( 2 Apr 98)
data_mbok1z
_audit_creation_date        01-03-09
_audit_creation_method 'maXus + CRYSTALS_ver_12-03-99'
_publ_contact_author_name ' Alison J. Edwards'
_publ_contact_author_address
;

;
_publ_contact_author_email ' '
_publ_contact_author_fax ' '
_publ_contact_author_phone ' '
_publ_author_name                  ' Alison J. Edwards' 
_publ_author_address     '   '
_publ_section_title
;
;
_publ_section_abstract
;
;
_publ_section_comment
;
;
_publ_section_synopsis
;

;
_publ_section_exptl_prep
;

;
_publ_section_exptl_refinement
;
The structure is well resolved in spite of significant anion and 
solvent disorder.  The disordered BF4 anion has been modelled 
using  a single boron atomic site, a set of four equal occupancy, 
partially occupied [54.8(9)%] fluorine atomic sites and a 
spherical shell of electron density centred on the boron atomic 
site of radius 1.38 angstrom and containing the electron density 
of the remaining 1.81(3) unresolved fluorine atoms.  This 
composite model provided a significantly improved fit to 
the observed data.
;
_publ_section_figure_captions
;

;
_publ_section_acknowledgements
;

;
_chemical_compound_source        'Local laboratory'
_exptl_crystal_description       'prism'
_exptl_crystal_colour            'brown'
_cell_measurement_temperature     200
_refine_ls_hydrogen_treatment    'refxyz'
 
 
# Submission details
_publ_requested_journal 'Acta Crystallographica Section C '
_diffrn_measurement_device  'KappaCCD'
_computing_data_collection  'KappaCCD'
_computing_data_reduction  'Denzo and Scalepak (Otwinowski & Minor, 1997)'
 
_diffrn_radiation_source  'fine-focus sealed tube'
_diffrn_reflns_limit_h_min    -15
_diffrn_reflns_limit_h_max     14
_diffrn_reflns_limit_k_min    -19
_diffrn_reflns_limit_k_max     19
_diffrn_reflns_limit_l_min    -42
_diffrn_reflns_limit_l_max     41
 
loop_
 _diffrn_radiation_wavelength     0.71073
_diffrn_radiation_wavelength_id all
 
 
_diffrn_orient_matrix_type 'X=UH'
_diffrn_orient_matrix_UB_11   -0.01949
_diffrn_orient_matrix_UB_12    0.08369
_diffrn_orient_matrix_UB_13   -0.00920
_diffrn_orient_matrix_UB_21   -0.04351
_diffrn_orient_matrix_UB_22   -0.00437
_diffrn_orient_matrix_UB_23    0.05236
_diffrn_orient_matrix_UB_31    0.02191
_diffrn_orient_matrix_UB_32    0.01223
_diffrn_orient_matrix_UB_33    0.01923
 
_cell_formula_units_Z     4
_exptl_crystal_density_diffrn    1.422
_exptl_crystal_density_method  'not measured'
_exptl_special_details
;
?
;
_chemical_formula_weight   1162.772
_diffrn_radiation_type    ' MoK\a'
 
loop_
 _symmetry_equiv_pos_as_xyz
'+X,+Y,+Z'
'-X,-Y,-Z'
'-X+ 1/2,+Y+ 1/2,-Z+ 1/2'
'+X+ 1/2,-Y+ 1/2,+Z+ 1/2'
 
_symmetry_space_group_name_H-M 'P 21/n        '
_symmetry_cell_setting 'Monoclinic'
_chemical_formula_moiety 'C60 H64 B F4 O4 P4 Rh '
_chemical_formula_sum    'C60 H64 B F4 O4 P4 Rh '
_chemical_name_systematic
;
 ?
;
_cell_length_a         11.70970(10)
_cell_length_b         14.65970(10)
_cell_length_c           32.0154(3)
_cell_angle_alpha                90.00
_cell_angle_beta            98.8272(3)
_cell_angle_gamma                90.00
_cell_volume             5430.69(8)
_diffrn_reflns_number  96669
_diffrn_reflns_theta_max  27.87
_diffrn_reflns_theta_min   2.93
_diffrn_reflns_theta_full  27.87
_cell_measurement_reflns_used     96324
_cell_measurement_theta_min        2.910
_cell_measurement_theta_max        27.878
_diffrn_measurement_method       'CCD'
_computing_cell_refinement 'HKL Scalepack (Otwinowski & Minor 1997)'
_diffrn_reflns_av_R_equivalents   0.053
# Absorption correction
 
loop_
 _exptl_crystal_face_index_h
 _exptl_crystal_face_index_k
 _exptl_crystal_face_index_l
 _exptl_crystal_face_perp_dist
    1    0    0  0.200
   -1    0    0  0.250
    0    1    1  0.100
    0   -1   -1  0.150
    0   -1    1  0.080
    0    1   -1  0.140
    1    1    0  0.180
   -1   -1    0  0.220
   -1    1    0  0.220
    1   -1    0  0.180
 
 
_exptl_absorpt_correction_type 'integration'
_exptl_absorpt_correction_T_min  0.813
_exptl_absorpt_correction_T_max  0.921
_exptl_absorpt_process_details
;
Gaussian integration (Coppens, 1970)
;
_exptl_absorpt_coefficient_mu     0.49
_exptl_crystal_F_000     2407
 
loop_
_atom_type_symbol
_atom_type_scat_dispersion_real
_atom_type_scat_dispersion_imag
_atom_type_scat_Cromer_Mann_a1
_atom_type_scat_Cromer_Mann_b1
_atom_type_scat_Cromer_Mann_a2
_atom_type_scat_Cromer_Mann_b2
_atom_type_scat_Cromer_Mann_a3
_atom_type_scat_Cromer_Mann_b3
_atom_type_scat_Cromer_Mann_a4
_atom_type_scat_Cromer_Mann_b4
_atom_type_scat_Cromer_Mann_c
_atom_type_scat_source  
 'C   '    0.0033    0.0016    2.3100   20.8439
    1.0200   10.2075    1.5886    0.5687    0.8650   51.6512    0.2156
'International_Tables_Vol_IV_Table_2.2B'
 'H   '    0.0000    0.0000    0.4930   10.5109
    0.3229   26.1257    0.1402    3.1424    0.0408   57.7997    0.0030
'International_Tables_Vol_IV_Table_2.2B'
 'B   '    0.0000    0.0010    2.0545   23.2185
    1.3326    1.0210    1.0979   60.3498    0.7068    0.1403   -0.1932
'International_Tables_Vol_IV_Table_2.2B'
 'F   '    0.0140    0.0100    3.5392   10.2825
    2.6412    4.2944    1.5170    0.2615    1.0243   26.1476    0.2776
'International_Tables_Vol_IV_Table_2.2B'
 'O   '    0.0106    0.0060    3.0485   13.2771
    2.2868    5.7011    1.5463    0.3239    0.8670   32.9089    0.2508
'International_Tables_Vol_IV_Table_2.2B'
 'P   '    0.0900    0.0950    6.4345    1.9067
    4.1791   27.1570    1.7800    0.5260    1.4908   68.1645    1.1149
'International_Tables_Vol_IV_Table_2.2B'
 'Rh  '   -1.2870    0.9190   19.2957    0.7515
   14.3501    8.2176    4.7343   25.8749    1.2892   98.6062    5.3280
'International_Tables_Vol_IV_Table_2.2B'
 
# Refinement statistics
_reflns_d_resolution_low    1.87
_reflns_d_resolution_high    0.62
# Number of reflections with Friedels Law is 12805 
# Number of reflections without Friedels Law is 0 
# Theoretical number of reflections is about 12933 
_diffrn_measured_fraction_theta_max 0.990 
_reflns_limit_h_max   15
_reflns_limit_h_min    0
_reflns_limit_k_max   19
_reflns_limit_k_min    0
_reflns_limit_l_max   41
_reflns_limit_l_min  -42
_refine_ls_matrix_type  full
_reflns_number_total 12805 
_reflns_threshold_expression 'I> 3.00 sigma(I)'
_reflns_number_gt 4765 
_refine_ls_number_reflns 4765 
_refine_ls_number_parameters 625 
_refine_ls_R_factor_gt 0.0453
_refine_ls_wR_factor_ref 0.0507
_refine_ls_goodness_of_fit_ref 1.0407 
_refine_ls_shift/su_max 0.007477 
_refine_ls_structure_factor_coef F 
_refine_diff_density_min -0.76 
_refine_diff_density_max 1.40 
_refine_ls_weighting_scheme calc 
_refine_ls_weighting_details 
;
Chebychev polynomial with 3 parameters, Carruthers & Watkin , 1979, 
0.714    0.448    0.443    
;
_refine_ls_number_restraints    0
_refine_ls_number_constraints   0
_refine_ls_extinction_method 
    'None'
_computing_structure_refinement 
; 
 CRYSTALS (Watkin et al 2001)  + maXus(Mackay et al., 1999)
; 
_computing_publication_material 
; 
 CRYSTALS (Watkin et al 2001)  + maXus(Mackay et al., 1999)
; 
_computing_molecular_graphics 
; 
 CAMERON (Watkin et al 1996) 
; 
 
_publ_section_references
;
Mackay, S., Gilmore, C. J.,Edwards, C., Stewart, N. & Shankland, K.
(1999). maXus  Computer Program for the Solution and Refinement of
Crystal Structures. Nonius, The Netherlands, MacScience, Japan & The
University of Glasgow.

COLLECT Software, Nonius BV 1997-2001) 

Otwinowski, Z. and Minor, W, (1997). In Methods in Enzymology, 276,
edited by C.W. Carter, Jr. & R.M. Sweet pp. 307-326,
New York:Academic Press.

Altomare, A., Burla, M.C., Camalli, M., Cascarano, G.L.,
Giacovazzo, C., Guagliardi, A., Moliterni, A.G.G & Spagna, R.
(1999). J. Appl. Cryst. 32, 115-119.


Coppens, P. (1970). In Crystallographic Computing, edited by
F.R. Ahmed, S.R.Hall & C.P.Huber, pp 255-270. Copenhagen: Munksgaard.

Watkin, D.J., Prout, C.K., Carruthers, J.R., Betteridge, P.W. & Cooper 
R.I. (2001) CRYSTALS 
Issue 11. Chemical Crystallography Laboratory, OXFORD, UK. 
 
Watkin, D.J., Prout, C.K. & Pearce, L.J. (1996) CAMERON, Chemical 
Crystallography Laboratory, OXFORD, UK. 

Carruthers, J.R. and Watkin, D.J. (1979),                                       
Acta Cryst, A35, 698-699                                                        

;
 
# Uequiv = arithmetic mean of Ui
# i.e. Ueqiv = (U1+U2+U3)/3

loop_
_atom_site_label
_atom_site_type_symbol
_atom_site_fract_x
_atom_site_fract_y
_atom_site_fract_z
_atom_site_U_iso_or_equiv
_atom_site_occupancy
_atom_site_adp_type
Rh1 rh 0.21872(4) 0.27516(3) 0.381090(15) 0.0243 1.0000 Uani 
P1 p 0.26592(13) 0.1196(1) 0.38344(5) 0.0253 1.0000 Uani 
P2 p 0.22178(12) 0.27913(11) 0.30707(5) 0.0296 1.0000 Uani 
P3 p 0.23631(13) 0.29252(9) 0.45595(5) 0.0283 1.0000 Uani 
P4 p 0.01778(12) 0.2651(1) 0.37511(5) 0.0284 1.0000 Uani 
O1 o 0.2659(4) 0.4081(3) 0.37764(13) 0.0321 1.0000 Uani 
O2 o 0.3660(3) 0.3524(2) 0.38780(13) 0.0311 1.0000 Uani 
O3 o 0.3730(8) 0.6368(6) 0.3245(3) 0.1074 1.0000 Uani 
C1 c 0.2035(5) 0.0523(4) 0.33695(18) 0.0306 1.0000 Uani 
C2 c 0.2396(6) 0.0834(4) 0.29569(19) 0.0331 1.0000 Uani 
C3 c 0.1829(6) 0.1731(4) 0.2781(2) 0.0379 1.0000 Uani 
C4 c 0.4208(5) 0.0993(4) 0.38335(18) 0.0301 1.0000 Uani 
C5 c 0.4918(5) 0.1677(4) 0.3718(2) 0.0389 1.0000 Uani 
C6 c 0.6064(6) 0.1490(5) 0.3689(2) 0.0460 1.0000 Uani 
C7 c 0.6515(5) 0.0629(5) 0.3789(2) 0.0421 1.0000 Uani 
C8 c 0.5824(5) -0.0043(4) 0.39038(19) 0.0357 1.0000 Uani 
C9 c 0.4673(5) 0.0125(4) 0.39220(19) 0.0306 1.0000 Uani 
C10 c 0.2332(5) 0.0491(4) 0.42706(19) 0.0292 1.0000 Uani 
C11 c 0.3088(5) 0.0464(4) 0.46537(19) 0.0315 1.0000 Uani 
C12 c 0.2775(6) 0.0001(4) 0.5000(2) 0.0426 1.0000 Uani 
C13 c 0.1724(7) -0.0421(4) 0.4966(2) 0.0458 1.0000 Uani 
C14 c 0.0988(6) -0.0454(4) 0.4586(2) 0.0442 1.0000 Uani 
C15 c 0.1295(5) 0.0008(4) 0.4238(2) 0.0355 1.0000 Uani 
C16 c 0.1250(5) 0.3639(4) 0.2776(2) 0.0342 1.0000 Uani 
C17 c 0.0978(5) 0.4442(4) 0.2965(2) 0.0375 1.0000 Uani 
C18 c 0.0239(6) 0.5070(5) 0.2742(2) 0.0479 1.0000 Uani 
C19 c -0.0237(6) 0.4899(5) 0.2329(2) 0.0496 1.0000 Uani 
C20 c 0.0065(7) 0.4119(6) 0.2141(2) 0.0585 1.0000 Uani 
C21 c 0.0799(7) 0.3487(5) 0.2355(2) 0.0470 1.0000 Uani 
C22 c 0.3612(6) 0.3135(4) 0.2927(2) 0.0401 1.0000 Uani 
C23 c 0.3942(6) 0.4051(5) 0.2972(2) 0.0406 1.0000 Uani 
C24 c 0.4961(6) 0.4332(5) 0.2845(2) 0.0515 1.0000 Uani 
C25 c 0.5680(8) 0.3727(6) 0.2688(3) 0.0737 1.0000 Uani 
C26 c 0.5374(8) 0.2823(6) 0.2663(4) 0.0836 1.0000 Uani 
C27 c 0.4347(8) 0.2543(6) 0.2775(3) 0.0749 1.0000 Uani 
C28 c 0.1272(5) 0.2336(4) 0.48174(18) 0.0332 1.0000 Uani 
C29 c 0.0019(5) 0.2516(4) 0.46227(19) 0.0339 1.0000 Uani 
C30 c -0.0365(5) 0.2075(4) 0.4191(2) 0.0345 1.0000 Uani 
C31 c 0.3727(5) 0.2533(3) 0.48549(19) 0.0307 1.0000 Uani 
C32 c 0.4708(6) 0.2450(4) 0.4658(2) 0.0382 1.0000 Uani 
C33 c 0.5729(6) 0.2108(4) 0.4882(2) 0.0450 1.0000 Uani 
C34 c 0.5810(7) 0.1892(5) 0.5302(3) 0.0539 1.0000 Uani 
C35 c 0.4848(6) 0.2022(4) 0.5504(2) 0.0469 1.0000 Uani 
C36 c 0.3819(6) 0.2337(4) 0.5293(2) 0.0414 1.0000 Uani 
C37 c 0.2384(5) 0.4094(4) 0.4757(2) 0.0333 1.0000 Uani 
C38 c 0.3293(6) 0.4666(4) 0.4686(2) 0.0373 1.0000 Uani 
C39 c 0.3397(7) 0.5525(5) 0.4867(2) 0.0479 1.0000 Uani 
C40 c 0.2610(8) 0.5830(5) 0.5112(3) 0.0568 1.0000 Uani 
C41 c 0.1711(7) 0.5274(5) 0.5181(3) 0.0563 1.0000 Uani 
C42 c 0.1590(6) 0.4413(4) 0.5004(2) 0.0447 1.0000 Uani 
C43 c -0.0675(5) 0.2098(4) 0.3295(2) 0.0335 1.0000 Uani 
C44 c -0.1083(5) 0.2577(4) 0.2926(2) 0.0347 1.0000 Uani 
C45 c -0.1684(5) 0.2141(5) 0.2578(2) 0.0449 1.0000 Uani 
C46 c -0.1902(6) 0.1223(5) 0.2593(2) 0.0471 1.0000 Uani 
C47 c -0.1543(6) 0.0719(5) 0.2963(2) 0.0448 1.0000 Uani 
C48 c -0.0937(5) 0.1159(4) 0.3304(2) 0.0337 1.0000 Uani 
C49 c -0.0521(5) 0.3766(4) 0.3769(2) 0.0341 1.0000 Uani 
C50 c -0.1717(6) 0.3852(5) 0.3653(2) 0.0458 1.0000 Uani 
C51 c -0.2243(7) 0.4694(6) 0.3665(3) 0.0619 1.0000 Uani 
C52 c -0.1591(8) 0.5449(5) 0.3795(3) 0.0625 1.0000 Uani 
C53 c -0.0425(7) 0.5383(5) 0.3918(3) 0.0533 1.0000 Uani 
C54 c 0.0125(6) 0.4527(4) 0.3906(2) 0.0381 1.0000 Uani 
C55 c 0.5642(12) 0.685(1) 0.3446(5) 0.1201 1.0000 Uani 
C56 c 0.4584(11) 0.6314(7) 0.3506(3) 0.0820 1.0000 Uani 
C57 c 0.468(1) 0.5758(6) 0.3885(3) 0.0802 1.0000 Uani 
B1 b 0.14889(18) 0.18001(18) 0.62249(18) 0.1200 1.0000 Uiso 
F1 f 0.1500(8) 0.2223(6) 0.6609(3) 0.1200 0.548(9) Uiso 
F2 f 0.257(1) 0.1821(6) 0.6117(3) 0.1200 0.548(9) Uiso 
F3 f 0.0741(9) 0.2245(7) 0.5924(3) 0.1200 0.548(9) Uiso 
F4 f 0.1127(8) 0.0879(8) 0.6253(3) 0.1200 0.548(9) Uiso 
F5 f 0.14889(18) 0.18001(18) 0.62249(18) 0.1200 1.81(3) Uiso 
H11 h 0.2274(5) -0.0128(4) 0.34199(18) 0.0353 1.0000 Uiso 
H12 h 0.1174(5) 0.0569(4) 0.33393(18) 0.0353 1.0000 Uiso 
H21 h 0.3252(6) 0.0927(4) 0.30071(19) 0.0437 1.0000 Uiso 
H22 h 0.2194(6) 0.0343(4) 0.27412(19) 0.0437 1.0000 Uiso 
H31 h 0.0975(6) 0.1650(4) 0.2765(2) 0.0446 1.0000 Uiso 
H32 h 0.2022(6) 0.1814(4) 0.2490(2) 0.0446 1.0000 Uiso 
H51 h 0.4595(5) 0.2299(4) 0.3647(2) 0.0480 1.0000 Uiso 
H61 h 0.6573(6) 0.1982(5) 0.3604(2) 0.0581 1.0000 Uiso 
H71 h 0.7345(5) 0.0499(5) 0.3771(2) 0.0486 1.0000 Uiso 
H81 h 0.6154(5) -0.0662(4) 0.39778(19) 0.0432 1.0000 Uiso 
H91 h 0.4162(5) -0.0375(4) 0.39986(19) 0.0388 1.0000 Uiso 
H111 h 0.3853(5) 0.0779(4) 0.46785(19) 0.0409 1.0000 Uiso 
H121 h 0.3316(6) -0.0018(4) 0.5274(2) 0.0520 1.0000 Uiso 
H131 h 0.1480(7) -0.0712(4) 0.5221(2) 0.0585 1.0000 Uiso 
H141 h 0.0248(6) -0.0804(4) 0.4559(2) 0.0597 1.0000 Uiso 
H151 h 0.0765(5) -0.0001(4) 0.3962(2) 0.0452 1.0000 Uiso 
H171 h 0.1326(5) 0.4570(4) 0.3264(2) 0.0465 1.0000 Uiso 
H181 h 0.0042(6) 0.5647(5) 0.2882(2) 0.0593 1.0000 Uiso 
H191 h -0.0785(6) 0.5346(5) 0.2170(2) 0.0627 1.0000 Uiso 
H201 h -0.0278(7) 0.3997(6) 0.1841(2) 0.0725 1.0000 Uiso 
H211 h 0.1033(7) 0.2931(5) 0.2209(2) 0.0594 1.0000 Uiso 
H231 h 0.3445(6) 0.4500(5) 0.3096(2) 0.0550 1.0000 Uiso 
H241 h 0.5172(6) 0.4994(5) 0.2864(2) 0.0684 1.0000 Uiso 
H251 h 0.6418(8) 0.3941(6) 0.2600(3) 0.0804 1.0000 Uiso 
H261 h 0.5901(8) 0.2372(6) 0.2556(4) 0.1029 1.0000 Uiso 
H271 h 0.4128(8) 0.1884(6) 0.2748(3) 0.0897 1.0000 Uiso 
H281 h 0.1379(5) 0.2529(4) 0.51204(18) 0.0426 1.0000 Uiso 
H282 h 0.1414(5) 0.1665(4) 0.48008(18) 0.0426 1.0000 Uiso 
H291 h -0.0489(5) 0.2285(4) 0.48234(19) 0.0445 1.0000 Uiso 
H292 h -0.0085(5) 0.3191(4) 0.45879(19) 0.0445 1.0000 Uiso 
H301 h -0.1229(5) 0.2073(4) 0.4132(2) 0.0390 1.0000 Uiso 
H302 h -0.0075(5) 0.1433(4) 0.4204(2) 0.0390 1.0000 Uiso 
H321 h 0.4653(6) 0.2624(4) 0.4353(2) 0.0429 1.0000 Uiso 
H331 h 0.6412(6) 0.2022(4) 0.4733(2) 0.0549 1.0000 Uiso 
H341 h 0.6550(7) 0.1645(5) 0.5459(3) 0.0600 1.0000 Uiso 
H351 h 0.4921(6) 0.1889(4) 0.5813(2) 0.0574 1.0000 Uiso 
H361 h 0.3133(6) 0.2421(4) 0.5440(2) 0.0537 1.0000 Uiso 
H381 h 0.3872(6) 0.4441(4) 0.4511(2) 0.0467 1.0000 Uiso 
H391 h 0.4052(7) 0.5927(5) 0.4816(2) 0.0558 1.0000 Uiso 
H401 h 0.2691(8) 0.6455(5) 0.5239(3) 0.0662 1.0000 Uiso 
H411 h 0.1139(7) 0.5499(5) 0.5359(3) 0.0676 1.0000 Uiso 
H421 h 0.0934(6) 0.4011(4) 0.5054(2) 0.0586 1.0000 Uiso 
H441 h -0.0931(5) 0.3247(4) 0.2915(2) 0.0447 1.0000 Uiso 
H451 h -0.1950(5) 0.2492(5) 0.2314(2) 0.0542 1.0000 Uiso 
H461 h -0.2345(6) 0.0911(5) 0.2341(2) 0.0571 1.0000 Uiso 
H471 h -0.1709(6) 0.0051(5) 0.2973(2) 0.0552 1.0000 Uiso 
H481 h -0.0674(5) 0.0805(4) 0.3568(2) 0.0434 1.0000 Uiso 
H501 h -0.2189(6) 0.3297(5) 0.3563(2) 0.0535 1.0000 Uiso 
H511 h -0.3098(7) 0.4750(6) 0.3579(3) 0.0731 1.0000 Uiso 
H521 h -0.1969(8) 0.6061(5) 0.3792(3) 0.0790 1.0000 Uiso 
H531 h 0.0039(7) 0.5930(5) 0.4026(3) 0.0695 1.0000 Uiso 
H541 h 0.0979(6) 0.4473(4) 0.3995(2) 0.0478 1.0000 Uiso 
H551 h 0.6271(12) 0.674(1) 0.3689(5) 0.1483 1.0000 Uiso 
H552 h 0.5452(12) 0.752(1) 0.3432(5) 0.1483 1.0000 Uiso 
H553 h 0.5906(12) 0.666(1) 0.3177(5) 0.1483 1.0000 Uiso 
H571 h 0.547(1) 0.5834(6) 0.4048(3) 0.0999 1.0000 Uiso 
H572 h 0.410(1) 0.5960(6) 0.4062(3) 0.0999 1.0000 Uiso 
H573 h 0.455(1) 0.5102(6) 0.3807(3) 0.0999 1.0000 Uiso 
C590 c 0.214(2) 0.7750(13) 0.3676(4) 0.0819(17) 0.4539(17) Uiso 
C591 c 0.2218(14) 0.7821(13) 0.3610(5) 0.0819(17) 0.5461(17) Uiso 
C600 c 0.171(2) 0.7233(14) 0.4021(6) 0.0819(17) 0.4539(17) Uiso 
C601 c 0.2003(15) 0.7058(11) 0.3896(5) 0.0819(17) 0.5461(17) Uiso 
C580 c 0.146(2) 0.7667(15) 0.3243(5) 0.0819(17) 0.4539(17) Uiso 
C581 c 0.1356(14) 0.8028(12) 0.3229(5) 0.0819(17) 0.5461(17) Uiso 
O40 o 0.2816(14) 0.8385(11) 0.3761(5) 0.0819(17) 0.4539(17) Uiso 
O41 o 0.3128(11) 0.8244(9) 0.3675(4) 0.0819(17) 0.5461(17) Uiso 
loop_
_atom_site_aniso_label
_atom_site_aniso_U_11
_atom_site_aniso_U_22
_atom_site_aniso_U_33
_atom_site_aniso_U_23
_atom_site_aniso_U_13
_atom_site_aniso_U_12
Rh1 0.0251(2) 0.0186(2) 0.0305(2) 0.0002(2) 0.00781(15) -0.0014(2) 
P1 0.0263(7) 0.0194(7) 0.0308(8) 0.0002(6) 0.0062(6) -0.0007(6) 
P2 0.0309(7) 0.0279(7) 0.0317(8) 0.0038(7) 0.0105(6) 0.0015(7) 
P3 0.0312(8) 0.0223(8) 0.0322(8) -0.0027(6) 0.0080(6) -0.0024(6) 
P4 0.0273(7) 0.0234(7) 0.0356(8) -0.0001(7) 0.0081(6) -0.0016(6) 
O1 0.031(2) 0.025(2) 0.041(2) 0.0019(17) 0.0050(18) -0.0015(17) 
O2 0.027(2) 0.0208(19) 0.045(3) 0.0036(17) 0.0064(18) -0.0037(16) 
O3 0.142(8) 0.100(6) 0.077(5) 0.011(4) 0.006(5) -0.003(5) 
C1 0.031(3) 0.026(3) 0.035(4) 0.001(2) 0.005(3) -0.001(2) 
C2 0.041(3) 0.025(3) 0.034(3) -0.003(2) 0.010(3) 0.003(2) 
C3 0.045(4) 0.034(3) 0.037(4) 0.004(3) 0.013(3) 0.002(3) 
C4 0.036(3) 0.027(3) 0.028(3) -0.002(2) 0.010(2) 0.000(2) 
C5 0.038(3) 0.032(3) 0.049(4) -0.000(3) 0.013(3) -0.002(3) 
C6 0.034(3) 0.050(4) 0.056(5) -0.001(3) 0.014(3) -0.008(3) 
C7 0.026(3) 0.054(4) 0.046(4) -0.005(3) 0.006(3) 0.005(3) 
C8 0.036(3) 0.035(3) 0.035(3) -0.005(3) 0.004(3) 0.007(3) 
C9 0.030(3) 0.028(3) 0.032(3) -0.006(2) -0.000(2) 0.001(2) 
C10 0.034(3) 0.021(3) 0.034(3) -0.001(2) 0.008(3) 0.000(2) 
C11 0.039(3) 0.023(3) 0.033(3) -0.003(2) 0.007(3) 0.000(2) 
C12 0.062(4) 0.030(3) 0.037(4) -0.000(3) 0.011(3) -0.003(3) 
C13 0.067(5) 0.035(4) 0.039(4) 0.011(3) 0.018(3) -0.001(3) 
C14 0.043(4) 0.037(3) 0.056(5) 0.006(3) 0.018(3) -0.008(3) 
C15 0.040(3) 0.026(3) 0.042(4) 0.003(3) 0.012(3) -0.002(2) 
C16 0.033(3) 0.032(3) 0.039(4) 0.009(3) 0.012(3) 0.002(3) 
C17 0.035(3) 0.035(3) 0.043(4) 0.005(3) 0.008(3) 0.000(3) 
C18 0.045(4) 0.033(3) 0.065(5) 0.007(3) 0.008(3) 0.010(3) 
C19 0.051(4) 0.049(4) 0.047(4) 0.018(3) 0.002(3) 0.008(3) 
C20 0.071(5) 0.065(5) 0.038(4) 0.017(4) 0.003(4) 0.009(4) 
C21 0.060(4) 0.045(4) 0.035(4) 0.008(3) 0.005(3) 0.012(3) 
C22 0.040(4) 0.035(3) 0.049(4) 0.011(3) 0.020(3) 0.006(3) 
C23 0.039(4) 0.043(4) 0.041(4) 0.006(3) 0.010(3) -0.004(3) 
C24 0.042(4) 0.054(4) 0.061(5) 0.013(4) 0.016(4) -0.005(3) 
C25 0.059(5) 0.061(5) 0.112(8) 0.021(5) 0.047(5) -0.004(4) 
C26 0.072(6) 0.059(5) 0.137(9) 0.006(6) 0.070(6) 0.007(5) 
C27 0.064(5) 0.057(5) 0.115(8) 0.010(5) 0.049(5) 0.004(4) 
C28 0.039(3) 0.028(3) 0.034(3) -0.005(3) 0.010(2) -0.012(3) 
C29 0.037(3) 0.028(3) 0.039(3) -0.002(2) 0.014(3) -0.002(2) 
C30 0.033(3) 0.028(3) 0.042(4) -0.007(2) 0.009(3) -0.007(2) 
C31 0.039(3) 0.017(3) 0.035(3) -0.002(2) 0.001(2) -0.002(2) 
C32 0.042(4) 0.023(3) 0.050(4) -0.004(2) 0.007(3) -0.007(2) 
C33 0.035(3) 0.028(3) 0.072(5) 0.001(3) 0.006(3) -0.002(3) 
C34 0.049(4) 0.035(3) 0.072(6) 0.010(3) -0.008(4) 0.004(3) 
C35 0.057(5) 0.032(4) 0.046(4) 0.005(3) -0.007(3) -0.002(3) 
C36 0.045(3) 0.032(3) 0.046(4) 0.005(3) 0.005(3) -0.003(3) 
C37 0.038(3) 0.021(3) 0.039(4) -0.003(2) 0.001(3) -0.001(2) 
C38 0.041(4) 0.027(3) 0.044(4) -0.005(3) 0.008(3) -0.003(3) 
C39 0.061(5) 0.031(3) 0.055(4) -0.010(3) 0.020(4) -0.014(3) 
C40 0.079(6) 0.029(3) 0.067(5) -0.010(3) 0.024(4) -0.006(3) 
C41 0.060(5) 0.042(4) 0.073(5) -0.023(4) 0.030(4) -0.008(3) 
C42 0.049(4) 0.029(3) 0.059(4) -0.016(3) 0.018(3) -0.007(3) 
C43 0.029(3) 0.030(3) 0.045(4) -0.003(2) 0.016(3) 0.000(2) 
C44 0.030(3) 0.033(3) 0.043(3) 0.001(3) 0.008(3) 0.000(2) 
C45 0.029(3) 0.062(5) 0.043(4) -0.001(4) 0.005(3) 0.000(3) 
C46 0.037(4) 0.063(5) 0.042(4) -0.016(4) 0.008(3) -0.006(3) 
C47 0.043(4) 0.046(4) 0.045(4) -0.012(3) 0.008(3) -0.003(3) 
C48 0.027(3) 0.029(3) 0.046(4) -0.005(3) 0.010(3) 0.001(2) 
C49 0.029(3) 0.032(3) 0.044(4) 0.003(3) 0.013(3) 0.005(2) 
C50 0.034(4) 0.042(4) 0.062(5) -0.005(3) 0.009(3) 0.004(3) 
C51 0.046(4) 0.057(5) 0.079(6) -0.007(4) -0.000(4) 0.025(4) 
C52 0.069(5) 0.029(4) 0.090(6) -0.009(4) 0.015(5) 0.012(4) 
C53 0.052(5) 0.032(4) 0.080(6) -0.003(4) 0.023(4) 0.002(3) 
C54 0.039(3) 0.026(3) 0.051(4) -0.000(3) 0.011(3) 0.003(3) 
C55 0.11(1) 0.128(11) 0.129(11) 0.062(9) 0.030(8) 0.006(8) 
C56 0.119(9) 0.062(6) 0.057(6) -0.008(5) -0.010(6) 0.021(6) 
C57 0.117(8) 0.063(6) 0.062(6) -0.002(5) 0.018(6) -0.018(5) 
loop_
 _geom_bond_atom_site_label_1
 _geom_bond_site_symmetry_1
 _geom_bond_atom_site_label_2
 _geom_bond_site_symmetry_2
 _geom_bond_distance
 _geom_bond_publ_flag
Rh1 . P1 . 2.3445(15)    yes
Rh1 . P2 . 2.3763(16)    yes
Rh1 . P3 . 2.3873(17)    yes
Rh1 . P4 . 2.3360(15)    yes
Rh1 . O1 . 2.034(4)    yes
Rh1 . O2 . 2.047(4)    yes
P1 . C1 . 1.841(6)    yes
P1 . C4 . 1.839(6)    yes
P1 . C10 . 1.825(6)    yes
P2 . C3 . 1.831(7)    yes
P2 . C16 . 1.841(6)    yes
P2 . C22 . 1.834(6)    yes
P3 . C28 . 1.840(5)    yes
P3 . C31 . 1.820(6)    yes
P3 . C37 . 1.826(6)    yes
P4 . C30 . 1.836(6)    yes
P4 . C43 . 1.828(6)    yes
P4 . C49 . 1.832(6)    yes
O1 . O2 . 1.426(5)    yes
O3 . C56 . 1.203(13)    yes
C1 . C2 . 1.517(8)    yes
C1 . H11 . 1.000    no
C1 . H12 . 1.000    no
C2 . C3 . 1.541(8)    yes
C2 . H21 . 1.000    no
C2 . H22 . 1.000    no
C3 . H31 . 1.000    no
C3 . H32 . 1.000    no
C4 . C5 . 1.388(8)    yes
C4 . C9 . 1.396(8)    yes
C5 . C6 . 1.387(9)    yes
C5 . H51 . 1.000    no
C6 . C7 . 1.39(1)    yes
C6 . H61 . 1.000    no
C7 . C8 . 1.362(9)    yes
C7 . H71 . 1.000    no
C8 . C9 . 1.380(8)    yes
C8 . H81 . 1.000    no
C9 . H91 . 1.000    no
C10 . C11 . 1.399(9)    yes
C10 . C15 . 1.395(8)    yes
C11 . C12 . 1.396(9)    yes
C11 . H111 . 1.000    no
C12 . C13 . 1.37(1)    yes
C12 . H121 . 1.000    no
C13 . C14 . 1.38(1)    yes
C13 . H131 . 1.000    no
C14 . C15 . 1.396(9)    yes
C14 . H141 . 1.000    no
C15 . H151 . 1.000    no
C16 . C17 . 1.382(9)    yes
C16 . C21 . 1.39(1)    yes
C17 . C18 . 1.384(9)    yes
C17 . H171 . 1.000    no
C18 . C19 . 1.378(11)    yes
C18 . H181 . 1.000    no
C19 . C20 . 1.363(11)    yes
C19 . H191 . 1.000    no
C20 . C21 . 1.37(1)    yes
C20 . H201 . 1.000    no
C21 . H211 . 1.000    no
C22 . C23 . 1.398(9)    yes
C22 . C27 . 1.36(1)    yes
C23 . C24 . 1.382(9)    yes
C23 . H231 . 1.000    no
C24 . C25 . 1.370(11)    yes
C24 . H241 . 1.000    no
C25 . C26 . 1.372(12)    yes
C25 . H251 . 1.000    no
C26 . C27 . 1.371(11)    yes
C26 . H261 . 1.000    no
C27 . H271 . 1.000    no
C28 . C29 . 1.526(9)    yes
C28 . H281 . 1.000    no
C28 . H282 . 1.000    no
C29 . C30 . 1.531(9)    yes
C29 . H291 . 1.000    no
C29 . H292 . 1.000    no
C30 . H301 . 1.000    no
C30 . H302 . 1.000    no
C31 . C32 . 1.398(9)    yes
C31 . C36 . 1.418(9)    yes
C32 . C33 . 1.39(1)    yes
C32 . H321 . 1.000    no
C33 . C34 . 1.370(11)    yes
C33 . H331 . 1.000    no
C34 . C35 . 1.395(11)    yes
C34 . H341 . 1.000    no
C35 . C36 . 1.37(1)    yes
C35 . H351 . 1.000    no
C36 . H361 . 1.000    no
C37 . C38 . 1.401(9)    yes
C37 . C42 . 1.389(9)    yes
C38 . C39 . 1.382(9)    yes
C38 . H381 . 1.000    no
C39 . C40 . 1.37(1)    yes
C39 . H391 . 1.000    no
C40 . C41 . 1.38(1)    yes
C40 . H401 . 1.000    no
C41 . C42 . 1.382(9)    yes
C41 . H411 . 1.000    no
C42 . H421 . 1.000    no
C43 . C44 . 1.394(9)    yes
C43 . C48 . 1.411(8)    yes
C44 . C45 . 1.379(9)    yes
C44 . H441 . 1.000    no
C45 . C46 . 1.37(1)    yes
C45 . H451 . 1.000    no
C46 . C47 . 1.41(1)    yes
C46 . H461 . 1.000    no
C47 . C48 . 1.368(9)    yes
C47 . H471 . 1.000    no
C48 . H481 . 1.000    no
C49 . C50 . 1.399(9)    yes
C49 . C54 . 1.382(9)    yes
C50 . C51 . 1.38(1)    yes
C50 . H501 . 1.000    no
C51 . C52 . 1.374(12)    yes
C51 . H511 . 1.000    no
C52 . C53 . 1.366(11)    yes
C52 . H521 . 1.000    no
C53 . C54 . 1.413(9)    yes
C53 . H531 . 1.000    no
C54 . H541 . 1.000    no
C55 . C56 . 1.506(17)    yes
C55 . H551 . 1.000    no
C55 . H552 . 1.000    no
C55 . H553 . 1.000    no
C56 . C57 . 1.452(13)    yes
C57 . H571 . 1.000    no
C57 . H572 . 1.000    no
C57 . H573 . 1.000    no
B1 . F1 . 1.374(12)    yes
B1 . F2 . 1.365(11)    yes
B1 . F3 . 1.365(12)    yes
B1 . F4 . 1.423(12)    yes
C590 . C591 . 0.26(3)    no
C590 . C600 . 1.489(5)    yes
C590 . C601 . 1.26(2)    no
C590 . C580 . 1.491(5)    yes
C590 . C581 . 1.63(3)    no
C590 . O40 . 1.225(15)    yes
C590 . O41 . 1.37(3)    no
C591 . C601 . 1.491(5)    yes
C591 . C580 . 1.37(2)    no
C591 . C581 . 1.490(5)    yes
C591 . O40 . 1.14(2)    no
C591 . O41 . 1.223(13)    yes
C600 . C601 . 0.62(3)    no
C580 . C581 . 0.54(3)    no
O40 . O41 . 0.53(2)    no

loop_
 _geom_angle_atom_site_label_1
 _geom_angle_site_symmetry_1
 _geom_angle_atom_site_label_2
 _geom_angle_site_symmetry_2
 _geom_angle_atom_site_label_3
 _geom_angle_site_symmetry_3
 _geom_angle
 _geom_angle_publ_flag
P1 . Rh1 . P2 . 90.93(6)    yes
P1 . Rh1 . P3 . 95.04(5)    yes
P2 . Rh1 . P3 . 170.52(5)    yes
P1 . Rh1 . P4 . 99.84(5)    yes
P2 . Rh1 . P4 . 95.11(5)    yes
P3 . Rh1 . P4 . 91.12(5)    yes
P1 . Rh1 . O1 . 150.38(12)    yes
P2 . Rh1 . O1 . 82.91(13)    yes
P3 . Rh1 . O1 . 88.28(12)    yes
P4 . Rh1 . O1 . 109.54(12)    yes
P1 . Rh1 . O2 . 110.11(11)    yes
P2 . Rh1 . O2 . 87.12(12)    yes
P3 . Rh1 . O2 . 83.93(12)    yes
P4 . Rh1 . O2 . 149.95(11)    yes
O1 . Rh1 . O2 . 40.90(15)    yes
Rh1 . P1 . C1 . 115.7(2)    yes
Rh1 . P1 . C4 . 112.67(18)    yes
C1 . P1 . C4 . 100.4(3)    yes
Rh1 . P1 . C10 . 119.96(18)    yes
C1 . P1 . C10 . 102.2(2)    yes
C4 . P1 . C10 . 103.4(3)    yes
Rh1 . P2 . C3 . 116.3(2)    yes
Rh1 . P2 . C16 . 115.2(2)    yes
C3 . P2 . C16 . 103.2(3)    yes
Rh1 . P2 . C22 . 114.0(2)    yes
C3 . P2 . C22 . 105.6(3)    yes
C16 . P2 . C22 . 100.8(3)    yes
Rh1 . P3 . C28 . 116.2(2)    yes
Rh1 . P3 . C31 . 114.9(2)    yes
C28 . P3 . C31 . 103.5(3)    yes
Rh1 . P3 . C37 . 116.3(2)    yes
C28 . P3 . C37 . 105.0(3)    yes
C31 . P3 . C37 . 98.8(3)    yes
Rh1 . P4 . C30 . 115.4(2)    yes
Rh1 . P4 . C43 . 120.90(18)    yes
C30 . P4 . C43 . 101.4(3)    yes
Rh1 . P4 . C49 . 112.9(2)    yes
C30 . P4 . C49 . 100.2(3)    yes
C43 . P4 . C49 . 103.2(3)    yes
Rh1 . O1 . O2 . 70.0(2)    yes
Rh1 . O2 . O1 . 69.1(2)    yes
P1 . C1 . C2 . 114.4(4)    yes
P1 . C1 . H11 . 108.33(19)    no
C2 . C1 . H11 . 108.6(3)    no
P1 . C1 . H12 . 108.11(19)    no
C2 . C1 . H12 . 107.9(3)    no
H11 . C1 . H12 . 109.466    no
C1 . C2 . C3 . 114.4(5)    yes
C1 . C2 . H21 . 107.9(3)    no
C3 . C2 . H21 . 107.9(4)    no
C1 . C2 . H22 . 108.5(3)    no
C3 . C2 . H22 . 108.6(3)    no
H21 . C2 . H22 . 109.466    no
P2 . C3 . C2 . 118.7(5)    yes
P2 . C3 . H31 . 107.3(2)    no
C2 . C3 . H31 . 106.7(3)    no
P2 . C3 . H32 . 107.2(2)    no
C2 . C3 . H32 . 107.3(3)    no
H31 . C3 . H32 . 109.467    no
P1 . C4 . C5 . 120.9(4)    yes
P1 . C4 . C9 . 120.1(4)    yes
C5 . C4 . C9 . 118.8(5)    yes
C4 . C5 . C6 . 120.0(6)    yes
C4 . C5 . H51 . 119.9(4)    no
C6 . C5 . H51 . 120.1(4)    no
C5 . C6 . C7 . 120.2(6)    yes
C5 . C6 . H61 . 120.0(4)    no
C7 . C6 . H61 . 119.8(4)    no
C6 . C7 . C8 . 120.0(6)    yes
C6 . C7 . H71 . 120.0(4)    no
C8 . C7 . H71 . 120.0(4)    no
C7 . C8 . C9 . 120.5(6)    yes
C7 . C8 . H81 . 119.7(4)    no
C9 . C8 . H81 . 119.8(4)    no
C4 . C9 . C8 . 120.5(6)    yes
C4 . C9 . H91 . 119.2(3)    no
C8 . C9 . H91 . 120.3(4)    no
P1 . C10 . C11 . 120.5(4)    yes
P1 . C10 . C15 . 120.9(5)    yes
C11 . C10 . C15 . 118.5(5)    yes
C10 . C11 . C12 . 120.1(6)    yes
C10 . C11 . H111 . 119.7(3)    no
C12 . C11 . H111 . 120.2(4)    no
C11 . C12 . C13 . 120.0(7)    yes
C11 . C12 . H121 . 120.1(4)    no
C13 . C12 . H121 . 119.9(4)    no
C12 . C13 . C14 . 121.2(6)    yes
C12 . C13 . H131 . 119.6(4)    no
C14 . C13 . H131 . 119.1(4)    no
C13 . C14 . C15 . 119.0(6)    yes
C13 . C14 . H141 . 120.7(4)    no
C15 . C14 . H141 . 120.3(4)    no
C10 . C15 . C14 . 120.9(6)    yes
C10 . C15 . H151 . 119.2(4)    no
C14 . C15 . H151 . 119.9(4)    no
P2 . C16 . C17 . 121.1(5)    yes
P2 . C16 . C21 . 120.1(5)    yes
C17 . C16 . C21 . 118.8(6)    yes
C16 . C17 . C18 . 120.7(7)    yes
C16 . C17 . H171 . 119.4(4)    no
C18 . C17 . H171 . 119.9(4)    no
C17 . C18 . C19 . 120.1(7)    yes
C17 . C18 . H181 . 120.1(4)    no
C19 . C18 . H181 . 119.8(4)    no
C18 . C19 . C20 . 118.8(7)    yes
C18 . C19 . H191 . 120.2(4)    no
C20 . C19 . H191 . 121.0(5)    no
C19 . C20 . C21 . 122.1(7)    yes
C19 . C20 . H201 . 118.7(5)    no
C21 . C20 . H201 . 119.2(5)    no
C16 . C21 . C20 . 119.5(7)    yes
C16 . C21 . H211 . 119.7(4)    no
C20 . C21 . H211 . 120.8(5)    no
P2 . C22 . C23 . 118.7(5)    yes
P2 . C22 . C27 . 123.3(6)    yes
C23 . C22 . C27 . 118.0(6)    yes
C22 . C23 . C24 . 119.5(6)    yes
C22 . C23 . H231 . 120.3(4)    no
C24 . C23 . H231 . 120.1(4)    no
C23 . C24 . C25 . 121.4(7)    yes
C23 . C24 . H241 . 119.2(4)    no
C25 . C24 . H241 . 119.3(5)    no
C24 . C25 . C26 . 118.6(7)    yes
C24 . C25 . H251 . 120.4(5)    no
C26 . C25 . H251 . 121.0(5)    no
C25 . C26 . C27 . 120.3(8)    yes
C25 . C26 . H261 . 119.4(5)    no
C27 . C26 . H261 . 120.3(5)    no
C22 . C27 . C26 . 122.0(8)    yes
C22 . C27 . H271 . 118.7(5)    no
C26 . C27 . H271 . 119.3(5)    no
P3 . C28 . C29 . 115.2(4)    yes
P3 . C28 . H281 . 108.07(19)    no
C29 . C28 . H281 . 108.4(3)    no
P3 . C28 . H282 . 107.8(2)    no
C29 . C28 . H282 . 107.8(3)    no
H281 . C28 . H282 . 109.466    no
C28 . C29 . C30 . 115.2(5)    yes
C28 . C29 . H291 . 108.0(3)    no
C30 . C29 . H291 . 108.4(3)    no
C28 . C29 . H292 . 108.0(3)    no
C30 . C29 . H292 . 107.7(3)    no
H291 . C29 . H292 . 109.467    no
P4 . C30 . C29 . 114.2(4)    yes
P4 . C30 . H301 . 108.4(2)    no
C29 . C30 . H301 . 108.7(3)    no
P4 . C30 . H302 . 108.08(19)    no
C29 . C30 . H302 . 108.0(3)    no
H301 . C30 . H302 . 109.466    no
P3 . C31 . C32 . 120.6(5)    yes
P3 . C31 . C36 . 120.3(5)    yes
C32 . C31 . C36 . 119.1(6)    yes
C31 . C32 . C33 . 119.9(6)    yes
C31 . C32 . H321 . 118.9(4)    no
C33 . C32 . H321 . 121.1(4)    no
C32 . C33 . C34 . 121.0(7)    yes
C32 . C33 . H331 . 119.1(4)    no
C34 . C33 . H331 . 119.9(4)    no
C33 . C34 . C35 . 118.9(7)    yes
C33 . C34 . H341 . 120.1(4)    no
C35 . C34 . H341 . 121.0(4)    no
C34 . C35 . C36 . 122.0(7)    yes
C34 . C35 . H351 . 118.7(4)    no
C36 . C35 . H351 . 119.3(4)    no
C31 . C36 . C35 . 118.9(6)    yes
C31 . C36 . H361 . 119.9(4)    no
C35 . C36 . H361 . 121.2(4)    no
P3 . C37 . C38 . 118.4(5)    yes
P3 . C37 . C42 . 122.6(5)    yes
C38 . C37 . C42 . 118.9(5)    yes
C37 . C38 . C39 . 119.8(6)    yes
C37 . C38 . H381 . 119.4(4)    no
C39 . C38 . H381 . 120.8(4)    no
C38 . C39 . C40 . 120.8(6)    yes
C38 . C39 . H391 . 119.3(4)    no
C40 . C39 . H391 . 120.0(4)    no
C39 . C40 . C41 . 119.7(6)    yes
C39 . C40 . H401 . 120.0(4)    no
C41 . C40 . H401 . 120.4(4)    no
C40 . C41 . C42 . 120.5(7)    yes
C40 . C41 . H411 . 119.4(4)    no
C42 . C41 . H411 . 120.0(4)    no
C37 . C42 . C41 . 120.3(6)    yes
C37 . C42 . H421 . 119.4(3)    no
C41 . C42 . H421 . 120.3(4)    no
P4 . C43 . C44 . 121.9(4)    yes
P4 . C43 . C48 . 120.7(5)    yes
C44 . C43 . C48 . 117.4(6)    yes
C43 . C44 . C45 . 121.1(6)    yes
C43 . C44 . H441 . 119.0(3)    no
C45 . C44 . H441 . 120.0(4)    no
C44 . C45 . C46 . 120.1(7)    yes
C44 . C45 . H451 . 120.0(4)    no
C46 . C45 . H451 . 119.9(4)    no
C45 . C46 . C47 . 120.7(6)    yes
C45 . C46 . H461 . 119.8(4)    no
C47 . C46 . H461 . 119.4(4)    no
C46 . C47 . C48 . 118.4(6)    yes
C46 . C47 . H471 . 120.5(4)    no
C48 . C47 . H471 . 121.1(4)    no
C43 . C48 . C47 . 122.1(6)    yes
C43 . C48 . H481 . 119.0(4)    no
C47 . C48 . H481 . 118.9(4)    no
P4 . C49 . C50 . 120.4(5)    yes
P4 . C49 . C54 . 120.4(5)    yes
C50 . C49 . C54 . 119.3(6)    yes
C49 . C50 . C51 . 120.4(7)    yes
C49 . C50 . H501 . 119.3(4)    no
C51 . C50 . H501 . 120.3(5)    no
C50 . C51 . C52 . 119.9(7)    yes
C50 . C51 . H511 . 119.8(5)    no
C52 . C51 . H511 . 120.2(4)    no
C51 . C52 . C53 . 121.0(7)    yes
C51 . C52 . H521 . 119.8(4)    no
C53 . C52 . H521 . 119.2(4)    no
C52 . C53 . C54 . 119.7(7)    yes
C52 . C53 . H531 . 120.5(4)    no
C54 . C53 . H531 . 119.8(4)    no
C49 . C54 . C53 . 119.8(6)    yes
C49 . C54 . H541 . 120.0(4)    no
C53 . C54 . H541 . 120.2(4)    no
C56 . C55 . H551 . 109.5(6)    no
C56 . C55 . H552 . 109.6(7)    no
H551 . C55 . H552 . 109.475    no
C56 . C55 . H553 . 109.2(7)    no
H551 . C55 . H553 . 109.477    no
H552 . C55 . H553 . 109.477    no
O3 . C56 . C55 . 119.4(10)    yes
O3 . C56 . C57 . 124.6(12)    yes
C55 . C56 . C57 . 116.1(10)    yes
C56 . C57 . H571 . 108.8(7)    no
C56 . C57 . H572 . 109.6(6)    no
H571 . C57 . H572 . 109.474    no
C56 . C57 . H573 . 110.0(5)    no
H571 . C57 . H573 . 109.476    no
H572 . C57 . H573 . 109.475    no
F1 . B1 . F2 . 109.49(9)    yes
F1 . B1 . F3 . 109.42(9)    yes
F2 . B1 . F3 . 109.41(9)    yes
F1 . B1 . F4 . 109.49(9)    yes
F2 . B1 . F4 . 109.55(9)    yes
F3 . B1 . F4 . 109.48(9)    yes
C591 . C590 . C600 . 172.7(92)    no
C591 . C590 . C601 . 148.9(108)    no
C600 . C590 . C601 . 24.2(12)    no
C591 . C590 . C580 . 59.2(54)    no
C600 . C590 . C580 . 117.3(12)    yes
C601 . C590 . C580 . 111.1(15)    no
C591 . C590 . C581 . 54.1(65)    no
C600 . C590 . C581 . 124.9(19)    no
C601 . C590 . C581 . 126.1(19)    no
C580 . C590 . C581 . 19.4(11)    no
C591 . C590 . O40 . 65.6(56)    no
C600 . C590 . O40 . 120.0(2)    yes
C601 . C590 . O40 . 128.4(17)    no
C580 . C590 . O40 . 120.1(2)    yes
C581 . C590 . O40 . 105.2(12)    no
C591 . C590 . O41 . 52.7(50)    no
C600 . C590 . O41 . 130.7(15)    no
C601 . C590 . O41 . 127.5(24)    no
C580 . C590 . O41 . 111.8(13)    no
C581 . C590 . O41 . 103.3(13)    no
O40 . C590 . O41 . 22.9(10)    no
C590 . C591 . C601 . 25.8(89)    no
C590 . C591 . C580 . 111.4(60)    no
C601 . C591 . C580 . 104.8(15)    no
C590 . C591 . C581 . 117.6(75)    no
C601 . C591 . C581 . 119.9(4)    yes
C580 . C591 . C581 . 21.4(12)    no
C590 . C591 . O40 . 102.2(63)    no
C601 . C591 . O40 . 115.7(16)    no
C580 . C591 . O40 . 138.7(18)    no
C581 . C591 . O40 . 119.6(16)    no
C590 . C591 . O41 . 117.5(55)    no
C601 . C591 . O41 . 120.0(2)    yes
C580 . C591 . O41 . 131.1(16)    no
C581 . C591 . O41 . 120.0(2)    yes
O40 . C591 . O41 . 25.7(10)    no
C590 . C600 . C601 . 56.7(21)    no
C590 . C601 . C591 . 5.2(20)    no
C590 . C601 . C600 . 99.1(27)    no
C591 . C601 . C600 . 104.3(28)    no
C590 . C580 . C591 . 9.5(11)    no
C590 . C580 . C581 . 94.7(30)    no
C591 . C580 . C581 . 91.3(27)    no
C590 . C581 . C591 . 8.2(12)    no
C590 . C581 . C580 . 65.8(25)    no
C591 . C581 . C580 . 67.3(25)    no
C590 . O40 . C591 . 12.1(13)    no
C590 . O40 . O41 . 93.5(32)    no
C591 . O40 . O41 . 85.7(28)    no
C590 . O41 . C591 . 9.8(10)    no
C590 . O41 . O40 . 63.6(27)    no
C591 . O41 . O40 . 68.6(27)   no


